10
0 90 64 12 35 39 55 33 43 50 
90 0 63 29 27 53 55 11 82 65 
64 63 0 45 35 28 39 53 79 97 
12 29 45 0 2 21 14 40 20 75 
35 27 35 2 0 8 83 84 30 75 
39 53 28 21 8 0 30 78 91 96 
55 55 39 14 83 30 0 40 79 40 
33 11 53 40 84 78 40 0 25 67 
43 82 79 20 30 91 79 25 0 95 
50 65 97 75 75 96 40 67 95 0 
BBRBBRRRRB
